c WARNING: for repeatability, setting FPU to use double precision
d VARIABLES            20804        
d CONSTRAINTS          82245        
c ============================[ Problem Statistics ]=============================
c |                                                                             |
c |  Number of variables:         20804                                         |
c |  Number of clauses:           82245                                         |
c |  Parse time:                   0.01 s                                       |
c |                                                                             |
c ============================[ Search Statistics ]==============================
c | Conflicts |          ORIGINAL         |          LEARNT          | Progress |
c |           |    Vars  Clauses Literals |    Limit  Clauses Lit/Cl |          |
c ===============================================================================
c |       100 |   14905    65557   160568 |    24037      100     18 | 28.355 % |
c |       250 |   14905    65557   160568 |    26441      250     13 | 28.355 % |
c |       475 |   14905    65557   160568 |    29085      475     20 | 28.355 % |
c |       812 |   14905    65557   160568 |    31994      812     55 | 28.355 % |
c |      1318 |   14905    65557   160568 |    35193     1318     93 | 28.355 % |
c |      2077 |   14905    65557   160568 |    38712     2077    104 | 28.355 % |
c |      3216 |   14905    65557   160568 |    42584     3216    120 | 28.355 % |
c |      4924 |   14905    65557   160568 |    46842     4924    108 | 28.355 % |
c |      7486 |   14905    65557   160568 |    51526     7486    104 | 28.355 % |
c |     11330 |   14901    65538   160522 |    56679    11329    107 | 28.374 % |
c |     17096 |   14901    65538   160522 |    62347    17095    123 | 28.374 % |
c |     25745 |   14901    65538   160522 |    68581    25744    134 | 28.374 % |
c |     38719 |   14901    65538   160522 |    75440    38718    139 | 28.374 % |
c |     58180 |   14898    65524   160488 |    82984    58178    143 | 28.389 % |
c |     87372 |   14898    65524   160488 |    91282    87370    150 | 28.389 % |
c |    131161 |   14898    65524   160488 |   100410    45674    144 | 28.389 % |
c |    196845 |   14898    65524   160488 |   110451    23196    143 | 28.389 % |
c |    295371 |   14898    65524   160488 |   121497    28071     97 | 28.389 % |
c |    443160 |   14898    65524   160488 |   133646    72471    131 | 28.389 % |
c |    664843 |   14898    65524   160488 |   147011    53437    120 | 28.389 % |
c |    997368 |   14898    65524   160488 |   161712   128372    142 | 28.389 % |
c |   1496156 |   14898    65524   160488 |   177884    40077    108 | 28.389 % |
c |   2244338 |   14898    65524   160488 |   195672   143785    189 | 28.389 % |
c |   3366612 |   14898    65524   160488 |   215239   186226    135 | 28.389 % |
c ===============================================================================
c restarts              : 8191
c conflicts             : 4940717        (2757 /sec)
c decisions             : 10495793       (0.00 % random) (5857 /sec)
c propagations          : 4490536435     (2505740 /sec)
c conflict literals     : 759361996      (34.74 % deleted)
d RESTARTS             8191
d FAILURES             4940717      
d NODES                10495793     
d BACKTRACKS           10495793     
d PROPAGATIONS         4490536435   
d NOGOODSIZE           153.69 
d MEMORY               305.00 
d TIME                 1792.1 

s UNKNOWN
